p cnf 558 1360
a 26 31 36 41 46 51 57 63 69 75 0
e 557 558 0
a 21 22 23 24 25 0
e 2 3 4 5 6 7 9 10 12 13 15 16 18 19 29 30 34 35 39 40 44 45 49 50 55 56 61 62 67 68 73 74 79 80 81 82 83 84 85 8 11 14 17 20 27 28 32 33 37 38 42 43 47 48 52 53 54 58 59 60 64 65 66 70 71 72 76 77 78 87 89 91 93 95 86 88 90 92 94 96 97 98 99 100 102 103 104 105 106 107 108 109 110 111 113 112 144 149 154 159 164 169 175 181 187 193 0
a 139 140 141 142 143 0
e 120 121 122 123 124 125 127 128 130 131 133 134 136 137 147 148 152 153 157 158 162 163 167 168 173 174 179 180 185 186 191 192 197 198 199 200 201 202 203 126 129 132 135 138 145 146 150 151 155 156 160 161 165 166 170 171 172 176 177 178 182 183 184 188 189 190 194 195 196 205 207 209 211 213 204 206 208 210 212 214 215 216 217 218 220 221 222 223 224 225 226 227 228 229 231 230 116 117 264 269 274 279 284 289 295 301 307 313 0
a 259 260 261 262 263 0
e 240 241 242 243 244 245 247 248 250 251 253 254 256 257 267 268 272 273 277 278 282 283 287 288 293 294 299 300 305 306 311 312 317 318 319 320 321 322 323 246 249 252 255 258 265 266 270 271 275 276 280 281 285 286 290 291 292 296 297 298 302 303 304 308 309 310 314 315 316 325 327 329 331 333 324 326 328 330 332 334 335 336 337 338 340 341 342 343 344 345 346 347 348 349 351 350 234 235 236 237 385 390 395 400 405 410 416 422 428 434 0
a 380 381 382 383 384 0
e 361 362 363 364 365 366 368 369 371 372 374 375 377 378 388 389 393 394 398 399 403 404 408 409 414 415 420 421 426 427 432 433 438 439 440 441 442 443 444 367 370 373 376 379 386 387 391 392 396 397 401 402 406 407 411 412 413 417 418 419 423 424 425 429 430 431 435 436 437 446 448 450 452 454 445 447 449 451 453 455 456 457 458 459 461 462 463 464 465 466 467 468 469 470 472 471 354 355 356 357 358 475 476 477 478 507 512 517 522 527 532 538 544 550 556 0
6 -7 -557 0
7 -6 -557 0
8 -7 -557 0
7 -8 -557 0
9 -10 -557 0
10 -9 -557 0
11 -10 -557 0
10 -11 -557 0
12 -13 -557 0
13 -12 -557 0
14 -13 -557 0
13 -14 -557 0
15 -16 -557 0
16 -15 -557 0
17 -16 -557 0
16 -17 -557 0
18 -19 -557 0
19 -18 -557 0
20 -19 -557 0
19 -20 -557 0
29 -27 -557 0
29 -28 -557 0
27 28 -29 -557 0
29 -30 -557 0
30 -29 -557 0
34 -32 -557 0
34 -33 -557 0
32 33 -34 -557 0
34 -35 -557 0
35 -34 -557 0
39 -37 -557 0
39 -38 -557 0
37 38 -39 -557 0
39 -40 -557 0
40 -39 -557 0
44 -42 -557 0
44 -43 -557 0
42 43 -44 -557 0
44 -45 -557 0
45 -44 -557 0
49 -47 -557 0
49 -48 -557 0
47 48 -49 -557 0
49 -50 -557 0
50 -49 -557 0
55 -52 -557 0
55 -53 -557 0
55 -54 -557 0
52 53 54 -55 -557 0
55 -56 -557 0
56 -55 -557 0
61 -58 -557 0
61 -59 -557 0
61 -60 -557 0
58 59 60 -61 -557 0
61 -62 -557 0
62 -61 -557 0
67 -64 -557 0
67 -65 -557 0
67 -66 -557 0
64 65 66 -67 -557 0
67 -68 -557 0
68 -67 -557 0
73 -70 -557 0
73 -71 -557 0
73 -72 -557 0
70 71 72 -73 -557 0
73 -74 -557 0
74 -73 -557 0
79 -76 -557 0
79 -77 -557 0
79 -78 -557 0
76 77 78 -79 -557 0
79 -80 -557 0
80 -79 -557 0
51 -81 -557 0
81 -51 -557 0
57 -82 -557 0
82 -57 -557 0
63 -83 -557 0
83 -63 -557 0
69 -84 -557 0
84 -69 -557 0
75 -85 -557 0
85 -75 -557 0
51 -8 -557 0
26 -8 -557 0
8 -51 -26 -557 0
57 -11 -557 0
31 -11 -557 0
11 -57 -31 -557 0
63 -14 -557 0
36 -14 -557 0
14 -63 -36 -557 0
69 -17 -557 0
41 -17 -557 0
17 -69 -41 -557 0
75 -20 -557 0
46 -20 -557 0
20 -75 -46 -557 0
51 -27 -557 0
86 -27 -557 0
27 -51 -86 -557 0
51 -28 -557 0
26 -28 -557 0
87 -28 -557 0
28 -51 -26 -87 -557 0
57 -32 -557 0
88 -32 -557 0
2 -32 -557 0
32 -57 -88 -2 -557 0
57 -33 -557 0
31 -33 -557 0
89 -33 -557 0
33 -57 -31 -89 -557 0
63 -37 -557 0
90 -37 -557 0
3 -37 -557 0
37 -63 -90 -3 -557 0
63 -38 -557 0
36 -38 -557 0
91 -38 -557 0
38 -63 -36 -91 -557 0
69 -42 -557 0
92 -42 -557 0
4 -42 -557 0
42 -69 -92 -4 -557 0
69 -43 -557 0
41 -43 -557 0
93 -43 -557 0
43 -69 -41 -93 -557 0
75 -47 -557 0
94 -47 -557 0
5 -47 -557 0
47 -75 -94 -5 -557 0
75 -48 -557 0
46 -48 -557 0
95 -48 -557 0
48 -75 -46 -95 -557 0
96 -52 -557 0
86 -52 -557 0
21 -52 -557 0
52 -96 -86 -21 -557 0
51 -53 -557 0
86 -53 -557 0
53 -51 -86 -557 0
51 -54 -557 0
26 -54 -557 0
87 -54 -557 0
54 -51 -26 -87 -557 0
97 -58 -557 0
88 -58 -557 0
22 -58 -557 0
58 -97 -88 -22 -557 0
57 -59 -557 0
88 -59 -557 0
59 -57 -88 -557 0
57 -60 -557 0
31 -60 -557 0
89 -60 -557 0
60 -57 -31 -89 -557 0
98 -64 -557 0
90 -64 -557 0
23 -64 -557 0
64 -98 -90 -23 -557 0
63 -65 -557 0
90 -65 -557 0
65 -63 -90 -557 0
63 -66 -557 0
36 -66 -557 0
91 -66 -557 0
66 -63 -36 -91 -557 0
99 -70 -557 0
92 -70 -557 0
24 -70 -557 0
70 -99 -92 -24 -557 0
69 -71 -557 0
92 -71 -557 0
71 -69 -92 -557 0
69 -72 -557 0
41 -72 -557 0
93 -72 -557 0
72 -69 -41 -93 -557 0
100 -76 -557 0
94 -76 -557 0
25 -76 -557 0
76 -100 -94 -25 -557 0
75 -77 -557 0
94 -77 -557 0
77 -75 -94 -557 0
75 -78 -557 0
46 -78 -557 0
95 -78 -557 0
78 -75 -46 -95 -557 0
21 87 -557 0
-21 -87 -557 0
22 89 -557 0
-22 -89 -557 0
23 91 -557 0
-23 -91 -557 0
24 93 -557 0
-24 -93 -557 0
25 95 -557 0
-25 -95 -557 0
26 86 -557 0
-26 -86 -557 0
31 88 -557 0
-31 -88 -557 0
36 90 -557 0
-36 -90 -557 0
41 92 -557 0
-41 -92 -557 0
46 94 -557 0
-46 -94 -557 0
51 96 -557 0
-51 -96 -557 0
57 97 -557 0
-57 -97 -557 0
63 98 -557 0
-63 -98 -557 0
69 99 -557 0
-69 -99 -557 0
75 100 -557 0
-75 -100 -557 0
7 -102 -557 0
19 -102 -557 0
102 -7 -19 -557 0
10 -103 -557 0
13 -103 -557 0
103 -10 -13 -557 0
10 -104 -557 0
16 -104 -557 0
104 -10 -16 -557 0
10 -105 -557 0
19 -105 -557 0
105 -10 -19 -557 0
13 -106 -557 0
16 -106 -557 0
106 -13 -16 -557 0
13 -107 -557 0
19 -107 -557 0
107 -13 -19 -557 0
7 -108 -557 0
10 -108 -557 0
108 -7 -10 -557 0
16 -109 -557 0
19 -109 -557 0
109 -16 -19 -557 0
7 -110 -557 0
13 -110 -557 0
110 -7 -13 -557 0
7 -111 -557 0
16 -111 -557 0
111 -7 -16 -557 0
112 113 -557 0
-112 -113 -557 0
112 -108 -557 0
112 -110 -557 0
112 -111 -557 0
112 -102 -557 0
112 -103 -557 0
112 -104 -557 0
112 -105 -557 0
112 -106 -557 0
112 -107 -557 0
112 -109 -557 0
108 110 111 102 103 104 105 106 107 109 -112 -557 0
113 -557 0
30 -144 -557 0
144 -30 -557 0
35 -149 -557 0
149 -35 -557 0
40 -154 -557 0
154 -40 -557 0
45 -159 -557 0
159 -45 -557 0
50 -164 -557 0
164 -50 -557 0
56 -169 -557 0
169 -56 -557 0
62 -175 -557 0
175 -62 -557 0
68 -181 -557 0
181 -68 -557 0
74 -187 -557 0
187 -74 -557 0
80 -193 -557 0
193 -80 -557 0
117 116 -557 0
26 -144 -117 -557 0
144 -26 -117 -557 0
31 -149 -117 -557 0
149 -31 -117 -557 0
36 -154 -117 -557 0
154 -36 -117 -557 0
41 -159 -117 -557 0
159 -41 -117 -557 0
46 -164 -117 -557 0
164 -46 -117 -557 0
51 -169 -117 -557 0
169 -51 -117 -557 0
57 -175 -117 -557 0
175 -57 -117 -557 0
63 -181 -117 -557 0
181 -63 -117 -557 0
69 -187 -117 -557 0
187 -69 -117 -557 0
75 -193 -117 -557 0
193 -75 -117 -557 0
124 -125 -116 -557 0
125 -124 -116 -557 0
126 -125 -116 -557 0
125 -126 -116 -557 0
127 -128 -116 -557 0
128 -127 -116 -557 0
129 -128 -116 -557 0
128 -129 -116 -557 0
130 -131 -116 -557 0
131 -130 -116 -557 0
132 -131 -116 -557 0
131 -132 -116 -557 0
133 -134 -116 -557 0
134 -133 -116 -557 0
135 -134 -116 -557 0
134 -135 -116 -557 0
136 -137 -116 -557 0
137 -136 -116 -557 0
138 -137 -116 -557 0
137 -138 -116 -557 0
147 -145 -116 -557 0
147 -146 -116 -557 0
145 146 -147 -116 -557 0
147 -148 -116 -557 0
148 -147 -116 -557 0
152 -150 -116 -557 0
152 -151 -116 -557 0
150 151 -152 -116 -557 0
152 -153 -116 -557 0
153 -152 -116 -557 0
157 -155 -116 -557 0
157 -156 -116 -557 0
155 156 -157 -116 -557 0
157 -158 -116 -557 0
158 -157 -116 -557 0
162 -160 -116 -557 0
162 -161 -116 -557 0
160 161 -162 -116 -557 0
162 -163 -116 -557 0
163 -162 -116 -557 0
167 -165 -116 -557 0
167 -166 -116 -557 0
165 166 -167 -116 -557 0
167 -168 -116 -557 0
168 -167 -116 -557 0
173 -170 -116 -557 0
173 -171 -116 -557 0
173 -172 -116 -557 0
170 171 172 -173 -116 -557 0
173 -174 -116 -557 0
174 -173 -116 -557 0
179 -176 -116 -557 0
179 -177 -116 -557 0
179 -178 -116 -557 0
176 177 178 -179 -116 -557 0
179 -180 -116 -557 0
180 -179 -116 -557 0
185 -182 -116 -557 0
185 -183 -116 -557 0
185 -184 -116 -557 0
182 183 184 -185 -116 -557 0
185 -186 -116 -557 0
186 -185 -116 -557 0
191 -188 -116 -557 0
191 -189 -116 -557 0
191 -190 -116 -557 0
188 189 190 -191 -116 -557 0
191 -192 -116 -557 0
192 -191 -116 -557 0
197 -194 -116 -557 0
197 -195 -116 -557 0
197 -196 -116 -557 0
194 195 196 -197 -116 -557 0
197 -198 -116 -557 0
198 -197 -116 -557 0
169 -199 -116 -557 0
199 -169 -116 -557 0
175 -200 -116 -557 0
200 -175 -116 -557 0
181 -201 -116 -557 0
201 -181 -116 -557 0
187 -202 -116 -557 0
202 -187 -116 -557 0
193 -203 -116 -557 0
203 -193 -116 -557 0
169 -126 -116 -557 0
144 -126 -116 -557 0
126 -169 -144 -116 -557 0
175 -129 -116 -557 0
149 -129 -116 -557 0
129 -175 -149 -116 -557 0
181 -132 -116 -557 0
154 -132 -116 -557 0
132 -181 -154 -116 -557 0
187 -135 -116 -557 0
159 -135 -116 -557 0
135 -187 -159 -116 -557 0
193 -138 -116 -557 0
164 -138 -116 -557 0
138 -193 -164 -116 -557 0
169 -145 -116 -557 0
204 -145 -116 -557 0
145 -169 -204 -116 -557 0
169 -146 -116 -557 0
144 -146 -116 -557 0
205 -146 -116 -557 0
146 -169 -144 -205 -116 -557 0
175 -150 -116 -557 0
206 -150 -116 -557 0
120 -150 -116 -557 0
150 -175 -206 -120 -116 -557 0
175 -151 -116 -557 0
149 -151 -116 -557 0
207 -151 -116 -557 0
151 -175 -149 -207 -116 -557 0
181 -155 -116 -557 0
208 -155 -116 -557 0
121 -155 -116 -557 0
155 -181 -208 -121 -116 -557 0
181 -156 -116 -557 0
154 -156 -116 -557 0
209 -156 -116 -557 0
156 -181 -154 -209 -116 -557 0
187 -160 -116 -557 0
210 -160 -116 -557 0
122 -160 -116 -557 0
160 -187 -210 -122 -116 -557 0
187 -161 -116 -557 0
159 -161 -116 -557 0
211 -161 -116 -557 0
161 -187 -159 -211 -116 -557 0
193 -165 -116 -557 0
212 -165 -116 -557 0
123 -165 -116 -557 0
165 -193 -212 -123 -116 -557 0
193 -166 -116 -557 0
164 -166 -116 -557 0
213 -166 -116 -557 0
166 -193 -164 -213 -116 -557 0
214 -170 -116 -557 0
204 -170 -116 -557 0
139 -170 -116 -557 0
170 -214 -204 -139 -116 -557 0
169 -171 -116 -557 0
204 -171 -116 -557 0
171 -169 -204 -116 -557 0
169 -172 -116 -557 0
144 -172 -116 -557 0
205 -172 -116 -557 0
172 -169 -144 -205 -116 -557 0
215 -176 -116 -557 0
206 -176 -116 -557 0
140 -176 -116 -557 0
176 -215 -206 -140 -116 -557 0
175 -177 -116 -557 0
206 -177 -116 -557 0
177 -175 -206 -116 -557 0
175 -178 -116 -557 0
149 -178 -116 -557 0
207 -178 -116 -557 0
178 -175 -149 -207 -116 -557 0
216 -182 -116 -557 0
208 -182 -116 -557 0
141 -182 -116 -557 0
182 -216 -208 -141 -116 -557 0
181 -183 -116 -557 0
208 -183 -116 -557 0
183 -181 -208 -116 -557 0
181 -184 -116 -557 0
154 -184 -116 -557 0
209 -184 -116 -557 0
184 -181 -154 -209 -116 -557 0
217 -188 -116 -557 0
210 -188 -116 -557 0
142 -188 -116 -557 0
188 -217 -210 -142 -116 -557 0
187 -189 -116 -557 0
210 -189 -116 -557 0
189 -187 -210 -116 -557 0
187 -190 -116 -557 0
159 -190 -116 -557 0
211 -190 -116 -557 0
190 -187 -159 -211 -116 -557 0
218 -194 -116 -557 0
212 -194 -116 -557 0
143 -194 -116 -557 0
194 -218 -212 -143 -116 -557 0
193 -195 -116 -557 0
212 -195 -116 -557 0
195 -193 -212 -116 -557 0
193 -196 -116 -557 0
164 -196 -116 -557 0
213 -196 -116 -557 0
196 -193 -164 -213 -116 -557 0
139 205 -116 -557 0
-139 -205 -116 -557 0
140 207 -116 -557 0
-140 -207 -116 -557 0
141 209 -116 -557 0
-141 -209 -116 -557 0
142 211 -116 -557 0
-142 -211 -116 -557 0
143 213 -116 -557 0
-143 -213 -116 -557 0
144 204 -116 -557 0
-144 -204 -116 -557 0
149 206 -116 -557 0
-149 -206 -116 -557 0
154 208 -116 -557 0
-154 -208 -116 -557 0
159 210 -116 -557 0
-159 -210 -116 -557 0
164 212 -116 -557 0
-164 -212 -116 -557 0
169 214 -116 -557 0
-169 -214 -116 -557 0
175 215 -116 -557 0
-175 -215 -116 -557 0
181 216 -116 -557 0
-181 -216 -116 -557 0
187 217 -116 -557 0
-187 -217 -116 -557 0
193 218 -116 -557 0
-193 -218 -116 -557 0
125 -220 -116 -557 0
137 -220 -116 -557 0
220 -125 -137 -116 -557 0
128 -221 -116 -557 0
131 -221 -116 -557 0
221 -128 -131 -116 -557 0
128 -222 -116 -557 0
134 -222 -116 -557 0
222 -128 -134 -116 -557 0
128 -223 -116 -557 0
137 -223 -116 -557 0
223 -128 -137 -116 -557 0
131 -224 -116 -557 0
134 -224 -116 -557 0
224 -131 -134 -116 -557 0
131 -225 -116 -557 0
137 -225 -116 -557 0
225 -131 -137 -116 -557 0
125 -226 -116 -557 0
128 -226 -116 -557 0
226 -125 -128 -116 -557 0
134 -227 -116 -557 0
137 -227 -116 -557 0
227 -134 -137 -116 -557 0
125 -228 -116 -557 0
131 -228 -116 -557 0
228 -125 -131 -116 -557 0
125 -229 -116 -557 0
134 -229 -116 -557 0
229 -125 -134 -116 -557 0
230 231 -116 -557 0
-230 -231 -116 -557 0
230 -226 -116 -557 0
230 -228 -116 -557 0
230 -229 -116 -557 0
230 -220 -116 -557 0
230 -221 -116 -557 0
230 -222 -116 -557 0
230 -223 -116 -557 0
230 -224 -116 -557 0
230 -225 -116 -557 0
230 -227 -116 -557 0
226 228 229 220 221 222 223 224 225 227 -230 -116 -557 0
231 -116 -557 0
148 -264 -116 -557 0
264 -148 -116 -557 0
153 -269 -116 -557 0
269 -153 -116 -557 0
158 -274 -116 -557 0
274 -158 -116 -557 0
163 -279 -116 -557 0
279 -163 -116 -557 0
168 -284 -116 -557 0
284 -168 -116 -557 0
174 -289 -116 -557 0
289 -174 -116 -557 0
180 -295 -116 -557 0
295 -180 -116 -557 0
186 -301 -116 -557 0
301 -186 -116 -557 0
192 -307 -116 -557 0
307 -192 -116 -557 0
198 -313 -116 -557 0
313 -198 -116 -557 0
237 236 -116 -557 0
26 -264 -234 -237 -116 -557 0
264 -26 -234 -237 -116 -557 0
31 -269 -234 -237 -116 -557 0
269 -31 -234 -237 -116 -557 0
36 -274 -234 -237 -116 -557 0
274 -36 -234 -237 -116 -557 0
41 -279 -234 -237 -116 -557 0
279 -41 -234 -237 -116 -557 0
46 -284 -234 -237 -116 -557 0
284 -46 -234 -237 -116 -557 0
51 -289 -234 -237 -116 -557 0
289 -51 -234 -237 -116 -557 0
57 -295 -234 -237 -116 -557 0
295 -57 -234 -237 -116 -557 0
63 -301 -234 -237 -116 -557 0
301 -63 -234 -237 -116 -557 0
69 -307 -234 -237 -116 -557 0
307 -69 -234 -237 -116 -557 0
75 -313 -234 -237 -116 -557 0
313 -75 -234 -237 -116 -557 0
144 -264 -235 -237 -116 -557 0
264 -144 -235 -237 -116 -557 0
149 -269 -235 -237 -116 -557 0
269 -149 -235 -237 -116 -557 0
154 -274 -235 -237 -116 -557 0
274 -154 -235 -237 -116 -557 0
159 -279 -235 -237 -116 -557 0
279 -159 -235 -237 -116 -557 0
164 -284 -235 -237 -116 -557 0
284 -164 -235 -237 -116 -557 0
169 -289 -235 -237 -116 -557 0
289 -169 -235 -237 -116 -557 0
175 -295 -235 -237 -116 -557 0
295 -175 -235 -237 -116 -557 0
181 -301 -235 -237 -116 -557 0
301 -181 -235 -237 -116 -557 0
187 -307 -235 -237 -116 -557 0
307 -187 -235 -237 -116 -557 0
193 -313 -235 -237 -116 -557 0
313 -193 -235 -237 -116 -557 0
234 235 -237 -116 -557 0
244 -245 -236 -116 -557 0
245 -244 -236 -116 -557 0
246 -245 -236 -116 -557 0
245 -246 -236 -116 -557 0
247 -248 -236 -116 -557 0
248 -247 -236 -116 -557 0
249 -248 -236 -116 -557 0
248 -249 -236 -116 -557 0
250 -251 -236 -116 -557 0
251 -250 -236 -116 -557 0
252 -251 -236 -116 -557 0
251 -252 -236 -116 -557 0
253 -254 -236 -116 -557 0
254 -253 -236 -116 -557 0
255 -254 -236 -116 -557 0
254 -255 -236 -116 -557 0
256 -257 -236 -116 -557 0
257 -256 -236 -116 -557 0
258 -257 -236 -116 -557 0
257 -258 -236 -116 -557 0
267 -265 -236 -116 -557 0
267 -266 -236 -116 -557 0
265 266 -267 -236 -116 -557 0
267 -268 -236 -116 -557 0
268 -267 -236 -116 -557 0
272 -270 -236 -116 -557 0
272 -271 -236 -116 -557 0
270 271 -272 -236 -116 -557 0
272 -273 -236 -116 -557 0
273 -272 -236 -116 -557 0
277 -275 -236 -116 -557 0
277 -276 -236 -116 -557 0
275 276 -277 -236 -116 -557 0
277 -278 -236 -116 -557 0
278 -277 -236 -116 -557 0
282 -280 -236 -116 -557 0
282 -281 -236 -116 -557 0
280 281 -282 -236 -116 -557 0
282 -283 -236 -116 -557 0
283 -282 -236 -116 -557 0
287 -285 -236 -116 -557 0
287 -286 -236 -116 -557 0
285 286 -287 -236 -116 -557 0
287 -288 -236 -116 -557 0
288 -287 -236 -116 -557 0
293 -290 -236 -116 -557 0
293 -291 -236 -116 -557 0
293 -292 -236 -116 -557 0
290 291 292 -293 -236 -116 -557 0
293 -294 -236 -116 -557 0
294 -293 -236 -116 -557 0
299 -296 -236 -116 -557 0
299 -297 -236 -116 -557 0
299 -298 -236 -116 -557 0
296 297 298 -299 -236 -116 -557 0
299 -300 -236 -116 -557 0
300 -299 -236 -116 -557 0
305 -302 -236 -116 -557 0
305 -303 -236 -116 -557 0
305 -304 -236 -116 -557 0
302 303 304 -305 -236 -116 -557 0
305 -306 -236 -116 -557 0
306 -305 -236 -116 -557 0
311 -308 -236 -116 -557 0
311 -309 -236 -116 -557 0
311 -310 -236 -116 -557 0
308 309 310 -311 -236 -116 -557 0
311 -312 -236 -116 -557 0
312 -311 -236 -116 -557 0
317 -314 -236 -116 -557 0
317 -315 -236 -116 -557 0
317 -316 -236 -116 -557 0
314 315 316 -317 -236 -116 -557 0
317 -318 -236 -116 -557 0
318 -317 -236 -116 -557 0
289 -319 -236 -116 -557 0
319 -289 -236 -116 -557 0
295 -320 -236 -116 -557 0
320 -295 -236 -116 -557 0
301 -321 -236 -116 -557 0
321 -301 -236 -116 -557 0
307 -322 -236 -116 -557 0
322 -307 -236 -116 -557 0
313 -323 -236 -116 -557 0
323 -313 -236 -116 -557 0
289 -246 -236 -116 -557 0
264 -246 -236 -116 -557 0
246 -289 -264 -236 -116 -557 0
295 -249 -236 -116 -557 0
269 -249 -236 -116 -557 0
249 -295 -269 -236 -116 -557 0
301 -252 -236 -116 -557 0
274 -252 -236 -116 -557 0
252 -301 -274 -236 -116 -557 0
307 -255 -236 -116 -557 0
279 -255 -236 -116 -557 0
255 -307 -279 -236 -116 -557 0
313 -258 -236 -116 -557 0
284 -258 -236 -116 -557 0
258 -313 -284 -236 -116 -557 0
289 -265 -236 -116 -557 0
324 -265 -236 -116 -557 0
265 -289 -324 -236 -116 -557 0
289 -266 -236 -116 -557 0
264 -266 -236 -116 -557 0
325 -266 -236 -116 -557 0
266 -289 -264 -325 -236 -116 -557 0
295 -270 -236 -116 -557 0
326 -270 -236 -116 -557 0
240 -270 -236 -116 -557 0
270 -295 -326 -240 -236 -116 -557 0
295 -271 -236 -116 -557 0
269 -271 -236 -116 -557 0
327 -271 -236 -116 -557 0
271 -295 -269 -327 -236 -116 -557 0
301 -275 -236 -116 -557 0
328 -275 -236 -116 -557 0
241 -275 -236 -116 -557 0
275 -301 -328 -241 -236 -116 -557 0
301 -276 -236 -116 -557 0
274 -276 -236 -116 -557 0
329 -276 -236 -116 -557 0
276 -301 -274 -329 -236 -116 -557 0
307 -280 -236 -116 -557 0
330 -280 -236 -116 -557 0
242 -280 -236 -116 -557 0
280 -307 -330 -242 -236 -116 -557 0
307 -281 -236 -116 -557 0
279 -281 -236 -116 -557 0
331 -281 -236 -116 -557 0
281 -307 -279 -331 -236 -116 -557 0
313 -285 -236 -116 -557 0
332 -285 -236 -116 -557 0
243 -285 -236 -116 -557 0
285 -313 -332 -243 -236 -116 -557 0
313 -286 -236 -116 -557 0
284 -286 -236 -116 -557 0
333 -286 -236 -116 -557 0
286 -313 -284 -333 -236 -116 -557 0
334 -290 -236 -116 -557 0
324 -290 -236 -116 -557 0
259 -290 -236 -116 -557 0
290 -334 -324 -259 -236 -116 -557 0
289 -291 -236 -116 -557 0
324 -291 -236 -116 -557 0
291 -289 -324 -236 -116 -557 0
289 -292 -236 -116 -557 0
264 -292 -236 -116 -557 0
325 -292 -236 -116 -557 0
292 -289 -264 -325 -236 -116 -557 0
335 -296 -236 -116 -557 0
326 -296 -236 -116 -557 0
260 -296 -236 -116 -557 0
296 -335 -326 -260 -236 -116 -557 0
295 -297 -236 -116 -557 0
326 -297 -236 -116 -557 0
297 -295 -326 -236 -116 -557 0
295 -298 -236 -116 -557 0
269 -298 -236 -116 -557 0
327 -298 -236 -116 -557 0
298 -295 -269 -327 -236 -116 -557 0
336 -302 -236 -116 -557 0
328 -302 -236 -116 -557 0
261 -302 -236 -116 -557 0
302 -336 -328 -261 -236 -116 -557 0
301 -303 -236 -116 -557 0
328 -303 -236 -116 -557 0
303 -301 -328 -236 -116 -557 0
301 -304 -236 -116 -557 0
274 -304 -236 -116 -557 0
329 -304 -236 -116 -557 0
304 -301 -274 -329 -236 -116 -557 0
337 -308 -236 -116 -557 0
330 -308 -236 -116 -557 0
262 -308 -236 -116 -557 0
308 -337 -330 -262 -236 -116 -557 0
307 -309 -236 -116 -557 0
330 -309 -236 -116 -557 0
309 -307 -330 -236 -116 -557 0
307 -310 -236 -116 -557 0
279 -310 -236 -116 -557 0
331 -310 -236 -116 -557 0
310 -307 -279 -331 -236 -116 -557 0
338 -314 -236 -116 -557 0
332 -314 -236 -116 -557 0
263 -314 -236 -116 -557 0
314 -338 -332 -263 -236 -116 -557 0
313 -315 -236 -116 -557 0
332 -315 -236 -116 -557 0
315 -313 -332 -236 -116 -557 0
313 -316 -236 -116 -557 0
284 -316 -236 -116 -557 0
333 -316 -236 -116 -557 0
316 -313 -284 -333 -236 -116 -557 0
259 325 -236 -116 -557 0
-259 -325 -236 -116 -557 0
260 327 -236 -116 -557 0
-260 -327 -236 -116 -557 0
261 329 -236 -116 -557 0
-261 -329 -236 -116 -557 0
262 331 -236 -116 -557 0
-262 -331 -236 -116 -557 0
263 333 -236 -116 -557 0
-263 -333 -236 -116 -557 0
264 324 -236 -116 -557 0
-264 -324 -236 -116 -557 0
269 326 -236 -116 -557 0
-269 -326 -236 -116 -557 0
274 328 -236 -116 -557 0
-274 -328 -236 -116 -557 0
279 330 -236 -116 -557 0
-279 -330 -236 -116 -557 0
284 332 -236 -116 -557 0
-284 -332 -236 -116 -557 0
289 334 -236 -116 -557 0
-289 -334 -236 -116 -557 0
295 335 -236 -116 -557 0
-295 -335 -236 -116 -557 0
301 336 -236 -116 -557 0
-301 -336 -236 -116 -557 0
307 337 -236 -116 -557 0
-307 -337 -236 -116 -557 0
313 338 -236 -116 -557 0
-313 -338 -236 -116 -557 0
245 -340 -236 -116 -557 0
257 -340 -236 -116 -557 0
340 -245 -257 -236 -116 -557 0
248 -341 -236 -116 -557 0
251 -341 -236 -116 -557 0
341 -248 -251 -236 -116 -557 0
248 -342 -236 -116 -557 0
254 -342 -236 -116 -557 0
342 -248 -254 -236 -116 -557 0
248 -343 -236 -116 -557 0
257 -343 -236 -116 -557 0
343 -248 -257 -236 -116 -557 0
251 -344 -236 -116 -557 0
254 -344 -236 -116 -557 0
344 -251 -254 -236 -116 -557 0
251 -345 -236 -116 -557 0
257 -345 -236 -116 -557 0
345 -251 -257 -236 -116 -557 0
245 -346 -236 -116 -557 0
248 -346 -236 -116 -557 0
346 -245 -248 -236 -116 -557 0
254 -347 -236 -116 -557 0
257 -347 -236 -116 -557 0
347 -254 -257 -236 -116 -557 0
245 -348 -236 -116 -557 0
251 -348 -236 -116 -557 0
348 -245 -251 -236 -116 -557 0
245 -349 -236 -116 -557 0
254 -349 -236 -116 -557 0
349 -245 -254 -236 -116 -557 0
350 351 -236 -116 -557 0
-350 -351 -236 -116 -557 0
350 -346 -236 -116 -557 0
350 -348 -236 -116 -557 0
350 -349 -236 -116 -557 0
350 -340 -236 -116 -557 0
350 -341 -236 -116 -557 0
350 -342 -236 -116 -557 0
350 -343 -236 -116 -557 0
350 -344 -236 -116 -557 0
350 -345 -236 -116 -557 0
350 -347 -236 -116 -557 0
346 348 349 340 341 342 343 344 345 347 -350 -236 -116 -557 0
351 -236 -116 -557 0
268 -385 -236 -116 -557 0
385 -268 -236 -116 -557 0
273 -390 -236 -116 -557 0
390 -273 -236 -116 -557 0
278 -395 -236 -116 -557 0
395 -278 -236 -116 -557 0
283 -400 -236 -116 -557 0
400 -283 -236 -116 -557 0
288 -405 -236 -116 -557 0
405 -288 -236 -116 -557 0
294 -410 -236 -116 -557 0
410 -294 -236 -116 -557 0
300 -416 -236 -116 -557 0
416 -300 -236 -116 -557 0
306 -422 -236 -116 -557 0
422 -306 -236 -116 -557 0
312 -428 -236 -116 -557 0
428 -312 -236 -116 -557 0
318 -434 -236 -116 -557 0
434 -318 -236 -116 -557 0
358 357 -236 -116 -557 0
26 -385 -354 -358 -236 -116 -557 0
385 -26 -354 -358 -236 -116 -557 0
31 -390 -354 -358 -236 -116 -557 0
390 -31 -354 -358 -236 -116 -557 0
36 -395 -354 -358 -236 -116 -557 0
395 -36 -354 -358 -236 -116 -557 0
41 -400 -354 -358 -236 -116 -557 0
400 -41 -354 -358 -236 -116 -557 0
46 -405 -354 -358 -236 -116 -557 0
405 -46 -354 -358 -236 -116 -557 0
51 -410 -354 -358 -236 -116 -557 0
410 -51 -354 -358 -236 -116 -557 0
57 -416 -354 -358 -236 -116 -557 0
416 -57 -354 -358 -236 -116 -557 0
63 -422 -354 -358 -236 -116 -557 0
422 -63 -354 -358 -236 -116 -557 0
69 -428 -354 -358 -236 -116 -557 0
428 -69 -354 -358 -236 -116 -557 0
75 -434 -354 -358 -236 -116 -557 0
434 -75 -354 -358 -236 -116 -557 0
144 -385 -355 -358 -236 -116 -557 0
385 -144 -355 -358 -236 -116 -557 0
149 -390 -355 -358 -236 -116 -557 0
390 -149 -355 -358 -236 -116 -557 0
154 -395 -355 -358 -236 -116 -557 0
395 -154 -355 -358 -236 -116 -557 0
159 -400 -355 -358 -236 -116 -557 0
400 -159 -355 -358 -236 -116 -557 0
164 -405 -355 -358 -236 -116 -557 0
405 -164 -355 -358 -236 -116 -557 0
169 -410 -355 -358 -236 -116 -557 0
410 -169 -355 -358 -236 -116 -557 0
175 -416 -355 -358 -236 -116 -557 0
416 -175 -355 -358 -236 -116 -557 0
181 -422 -355 -358 -236 -116 -557 0
422 -181 -355 -358 -236 -116 -557 0
187 -428 -355 -358 -236 -116 -557 0
428 -187 -355 -358 -236 -116 -557 0
193 -434 -355 -358 -236 -116 -557 0
434 -193 -355 -358 -236 -116 -557 0
264 -385 -356 -358 -236 -116 -557 0
385 -264 -356 -358 -236 -116 -557 0
269 -390 -356 -358 -236 -116 -557 0
390 -269 -356 -358 -236 -116 -557 0
274 -395 -356 -358 -236 -116 -557 0
395 -274 -356 -358 -236 -116 -557 0
279 -400 -356 -358 -236 -116 -557 0
400 -279 -356 -358 -236 -116 -557 0
284 -405 -356 -358 -236 -116 -557 0
405 -284 -356 -358 -236 -116 -557 0
289 -410 -356 -358 -236 -116 -557 0
410 -289 -356 -358 -236 -116 -557 0
295 -416 -356 -358 -236 -116 -557 0
416 -295 -356 -358 -236 -116 -557 0
301 -422 -356 -358 -236 -116 -557 0
422 -301 -356 -358 -236 -116 -557 0
307 -428 -356 -358 -236 -116 -557 0
428 -307 -356 -358 -236 -116 -557 0
313 -434 -356 -358 -236 -116 -557 0
434 -313 -356 -358 -236 -116 -557 0
354 355 356 -358 -236 -116 -557 0
365 -366 -357 -236 -116 -557 0
366 -365 -357 -236 -116 -557 0
367 -366 -357 -236 -116 -557 0
366 -367 -357 -236 -116 -557 0
368 -369 -357 -236 -116 -557 0
369 -368 -357 -236 -116 -557 0
370 -369 -357 -236 -116 -557 0
369 -370 -357 -236 -116 -557 0
371 -372 -357 -236 -116 -557 0
372 -371 -357 -236 -116 -557 0
373 -372 -357 -236 -116 -557 0
372 -373 -357 -236 -116 -557 0
374 -375 -357 -236 -116 -557 0
375 -374 -357 -236 -116 -557 0
376 -375 -357 -236 -116 -557 0
375 -376 -357 -236 -116 -557 0
377 -378 -357 -236 -116 -557 0
378 -377 -357 -236 -116 -557 0
379 -378 -357 -236 -116 -557 0
378 -379 -357 -236 -116 -557 0
388 -386 -357 -236 -116 -557 0
388 -387 -357 -236 -116 -557 0
386 387 -388 -357 -236 -116 -557 0
388 -389 -357 -236 -116 -557 0
389 -388 -357 -236 -116 -557 0
393 -391 -357 -236 -116 -557 0
393 -392 -357 -236 -116 -557 0
391 392 -393 -357 -236 -116 -557 0
393 -394 -357 -236 -116 -557 0
394 -393 -357 -236 -116 -557 0
398 -396 -357 -236 -116 -557 0
398 -397 -357 -236 -116 -557 0
396 397 -398 -357 -236 -116 -557 0
398 -399 -357 -236 -116 -557 0
399 -398 -357 -236 -116 -557 0
403 -401 -357 -236 -116 -557 0
403 -402 -357 -236 -116 -557 0
401 402 -403 -357 -236 -116 -557 0
403 -404 -357 -236 -116 -557 0
404 -403 -357 -236 -116 -557 0
408 -406 -357 -236 -116 -557 0
408 -407 -357 -236 -116 -557 0
406 407 -408 -357 -236 -116 -557 0
408 -409 -357 -236 -116 -557 0
409 -408 -357 -236 -116 -557 0
414 -411 -357 -236 -116 -557 0
414 -412 -357 -236 -116 -557 0
414 -413 -357 -236 -116 -557 0
411 412 413 -414 -357 -236 -116 -557 0
414 -415 -357 -236 -116 -557 0
415 -414 -357 -236 -116 -557 0
420 -417 -357 -236 -116 -557 0
420 -418 -357 -236 -116 -557 0
420 -419 -357 -236 -116 -557 0
417 418 419 -420 -357 -236 -116 -557 0
420 -421 -357 -236 -116 -557 0
421 -420 -357 -236 -116 -557 0
426 -423 -357 -236 -116 -557 0
426 -424 -357 -236 -116 -557 0
426 -425 -357 -236 -116 -557 0
423 424 425 -426 -357 -236 -116 -557 0
426 -427 -357 -236 -116 -557 0
427 -426 -357 -236 -116 -557 0
432 -429 -357 -236 -116 -557 0
432 -430 -357 -236 -116 -557 0
432 -431 -357 -236 -116 -557 0
429 430 431 -432 -357 -236 -116 -557 0
432 -433 -357 -236 -116 -557 0
433 -432 -357 -236 -116 -557 0
438 -435 -357 -236 -116 -557 0
438 -436 -357 -236 -116 -557 0
438 -437 -357 -236 -116 -557 0
435 436 437 -438 -357 -236 -116 -557 0
438 -439 -357 -236 -116 -557 0
439 -438 -357 -236 -116 -557 0
410 -440 -357 -236 -116 -557 0
440 -410 -357 -236 -116 -557 0
416 -441 -357 -236 -116 -557 0
441 -416 -357 -236 -116 -557 0
422 -442 -357 -236 -116 -557 0
442 -422 -357 -236 -116 -557 0
428 -443 -357 -236 -116 -557 0
443 -428 -357 -236 -116 -557 0
434 -444 -357 -236 -116 -557 0
444 -434 -357 -236 -116 -557 0
410 -367 -357 -236 -116 -557 0
385 -367 -357 -236 -116 -557 0
367 -410 -385 -357 -236 -116 -557 0
416 -370 -357 -236 -116 -557 0
390 -370 -357 -236 -116 -557 0
370 -416 -390 -357 -236 -116 -557 0
422 -373 -357 -236 -116 -557 0
395 -373 -357 -236 -116 -557 0
373 -422 -395 -357 -236 -116 -557 0
428 -376 -357 -236 -116 -557 0
400 -376 -357 -236 -116 -557 0
376 -428 -400 -357 -236 -116 -557 0
434 -379 -357 -236 -116 -557 0
405 -379 -357 -236 -116 -557 0
379 -434 -405 -357 -236 -116 -557 0
410 -386 -357 -236 -116 -557 0
445 -386 -357 -236 -116 -557 0
386 -410 -445 -357 -236 -116 -557 0
410 -387 -357 -236 -116 -557 0
385 -387 -357 -236 -116 -557 0
446 -387 -357 -236 -116 -557 0
387 -410 -385 -446 -357 -236 -116 -557 0
416 -391 -357 -236 -116 -557 0
447 -391 -357 -236 -116 -557 0
361 -391 -357 -236 -116 -557 0
391 -416 -447 -361 -357 -236 -116 -557 0
416 -392 -357 -236 -116 -557 0
390 -392 -357 -236 -116 -557 0
448 -392 -357 -236 -116 -557 0
392 -416 -390 -448 -357 -236 -116 -557 0
422 -396 -357 -236 -116 -557 0
449 -396 -357 -236 -116 -557 0
362 -396 -357 -236 -116 -557 0
396 -422 -449 -362 -357 -236 -116 -557 0
422 -397 -357 -236 -116 -557 0
395 -397 -357 -236 -116 -557 0
450 -397 -357 -236 -116 -557 0
397 -422 -395 -450 -357 -236 -116 -557 0
428 -401 -357 -236 -116 -557 0
451 -401 -357 -236 -116 -557 0
363 -401 -357 -236 -116 -557 0
401 -428 -451 -363 -357 -236 -116 -557 0
428 -402 -357 -236 -116 -557 0
400 -402 -357 -236 -116 -557 0
452 -402 -357 -236 -116 -557 0
402 -428 -400 -452 -357 -236 -116 -557 0
434 -406 -357 -236 -116 -557 0
453 -406 -357 -236 -116 -557 0
364 -406 -357 -236 -116 -557 0
406 -434 -453 -364 -357 -236 -116 -557 0
434 -407 -357 -236 -116 -557 0
405 -407 -357 -236 -116 -557 0
454 -407 -357 -236 -116 -557 0
407 -434 -405 -454 -357 -236 -116 -557 0
455 -411 -357 -236 -116 -557 0
445 -411 -357 -236 -116 -557 0
380 -411 -357 -236 -116 -557 0
411 -455 -445 -380 -357 -236 -116 -557 0
410 -412 -357 -236 -116 -557 0
445 -412 -357 -236 -116 -557 0
412 -410 -445 -357 -236 -116 -557 0
410 -413 -357 -236 -116 -557 0
385 -413 -357 -236 -116 -557 0
446 -413 -357 -236 -116 -557 0
413 -410 -385 -446 -357 -236 -116 -557 0
456 -417 -357 -236 -116 -557 0
447 -417 -357 -236 -116 -557 0
381 -417 -357 -236 -116 -557 0
417 -456 -447 -381 -357 -236 -116 -557 0
416 -418 -357 -236 -116 -557 0
447 -418 -357 -236 -116 -557 0
418 -416 -447 -357 -236 -116 -557 0
416 -419 -357 -236 -116 -557 0
390 -419 -357 -236 -116 -557 0
448 -419 -357 -236 -116 -557 0
419 -416 -390 -448 -357 -236 -116 -557 0
457 -423 -357 -236 -116 -557 0
449 -423 -357 -236 -116 -557 0
382 -423 -357 -236 -116 -557 0
423 -457 -449 -382 -357 -236 -116 -557 0
422 -424 -357 -236 -116 -557 0
449 -424 -357 -236 -116 -557 0
424 -422 -449 -357 -236 -116 -557 0
422 -425 -357 -236 -116 -557 0
395 -425 -357 -236 -116 -557 0
450 -425 -357 -236 -116 -557 0
425 -422 -395 -450 -357 -236 -116 -557 0
458 -429 -357 -236 -116 -557 0
451 -429 -357 -236 -116 -557 0
383 -429 -357 -236 -116 -557 0
429 -458 -451 -383 -357 -236 -116 -557 0
428 -430 -357 -236 -116 -557 0
451 -430 -357 -236 -116 -557 0
430 -428 -451 -357 -236 -116 -557 0
428 -431 -357 -236 -116 -557 0
400 -431 -357 -236 -116 -557 0
452 -431 -357 -236 -116 -557 0
431 -428 -400 -452 -357 -236 -116 -557 0
459 -435 -357 -236 -116 -557 0
453 -435 -357 -236 -116 -557 0
384 -435 -357 -236 -116 -557 0
435 -459 -453 -384 -357 -236 -116 -557 0
434 -436 -357 -236 -116 -557 0
453 -436 -357 -236 -116 -557 0
436 -434 -453 -357 -236 -116 -557 0
434 -437 -357 -236 -116 -557 0
405 -437 -357 -236 -116 -557 0
454 -437 -357 -236 -116 -557 0
437 -434 -405 -454 -357 -236 -116 -557 0
380 446 -357 -236 -116 -557 0
-380 -446 -357 -236 -116 -557 0
381 448 -357 -236 -116 -557 0
-381 -448 -357 -236 -116 -557 0
382 450 -357 -236 -116 -557 0
-382 -450 -357 -236 -116 -557 0
383 452 -357 -236 -116 -557 0
-383 -452 -357 -236 -116 -557 0
384 454 -357 -236 -116 -557 0
-384 -454 -357 -236 -116 -557 0
385 445 -357 -236 -116 -557 0
-385 -445 -357 -236 -116 -557 0
390 447 -357 -236 -116 -557 0
-390 -447 -357 -236 -116 -557 0
395 449 -357 -236 -116 -557 0
-395 -449 -357 -236 -116 -557 0
400 451 -357 -236 -116 -557 0
-400 -451 -357 -236 -116 -557 0
405 453 -357 -236 -116 -557 0
-405 -453 -357 -236 -116 -557 0
410 455 -357 -236 -116 -557 0
-410 -455 -357 -236 -116 -557 0
416 456 -357 -236 -116 -557 0
-416 -456 -357 -236 -116 -557 0
422 457 -357 -236 -116 -557 0
-422 -457 -357 -236 -116 -557 0
428 458 -357 -236 -116 -557 0
-428 -458 -357 -236 -116 -557 0
434 459 -357 -236 -116 -557 0
-434 -459 -357 -236 -116 -557 0
366 -461 -357 -236 -116 -557 0
378 -461 -357 -236 -116 -557 0
461 -366 -378 -357 -236 -116 -557 0
369 -462 -357 -236 -116 -557 0
372 -462 -357 -236 -116 -557 0
462 -369 -372 -357 -236 -116 -557 0
369 -463 -357 -236 -116 -557 0
375 -463 -357 -236 -116 -557 0
463 -369 -375 -357 -236 -116 -557 0
369 -464 -357 -236 -116 -557 0
378 -464 -357 -236 -116 -557 0
464 -369 -378 -357 -236 -116 -557 0
372 -465 -357 -236 -116 -557 0
375 -465 -357 -236 -116 -557 0
465 -372 -375 -357 -236 -116 -557 0
372 -466 -357 -236 -116 -557 0
378 -466 -357 -236 -116 -557 0
466 -372 -378 -357 -236 -116 -557 0
366 -467 -357 -236 -116 -557 0
369 -467 -357 -236 -116 -557 0
467 -366 -369 -357 -236 -116 -557 0
375 -468 -357 -236 -116 -557 0
378 -468 -357 -236 -116 -557 0
468 -375 -378 -357 -236 -116 -557 0
366 -469 -357 -236 -116 -557 0
372 -469 -357 -236 -116 -557 0
469 -366 -372 -357 -236 -116 -557 0
366 -470 -357 -236 -116 -557 0
375 -470 -357 -236 -116 -557 0
470 -366 -375 -357 -236 -116 -557 0
471 472 -357 -236 -116 -557 0
-471 -472 -357 -236 -116 -557 0
471 -467 -357 -236 -116 -557 0
471 -469 -357 -236 -116 -557 0
471 -470 -357 -236 -116 -557 0
471 -461 -357 -236 -116 -557 0
471 -462 -357 -236 -116 -557 0
471 -463 -357 -236 -116 -557 0
471 -464 -357 -236 -116 -557 0
471 -465 -357 -236 -116 -557 0
471 -466 -357 -236 -116 -557 0
471 -468 -357 -236 -116 -557 0
467 469 470 461 462 463 464 465 466 468 -471 -357 -236 -116 -557 0
472 -357 -236 -116 -557 0
389 -507 -357 -236 -116 -557 0
507 -389 -357 -236 -116 -557 0
394 -512 -357 -236 -116 -557 0
512 -394 -357 -236 -116 -557 0
399 -517 -357 -236 -116 -557 0
517 -399 -357 -236 -116 -557 0
404 -522 -357 -236 -116 -557 0
522 -404 -357 -236 -116 -557 0
409 -527 -357 -236 -116 -557 0
527 -409 -357 -236 -116 -557 0
415 -532 -357 -236 -116 -557 0
532 -415 -357 -236 -116 -557 0
421 -538 -357 -236 -116 -557 0
538 -421 -357 -236 -116 -557 0
427 -544 -357 -236 -116 -557 0
544 -427 -357 -236 -116 -557 0
433 -550 -357 -236 -116 -557 0
550 -433 -357 -236 -116 -557 0
439 -556 -357 -236 -116 -557 0
556 -439 -357 -236 -116 -557 0
26 -507 -475 -357 -236 -116 -557 0
507 -26 -475 -357 -236 -116 -557 0
31 -512 -475 -357 -236 -116 -557 0
512 -31 -475 -357 -236 -116 -557 0
36 -517 -475 -357 -236 -116 -557 0
517 -36 -475 -357 -236 -116 -557 0
41 -522 -475 -357 -236 -116 -557 0
522 -41 -475 -357 -236 -116 -557 0
46 -527 -475 -357 -236 -116 -557 0
527 -46 -475 -357 -236 -116 -557 0
51 -532 -475 -357 -236 -116 -557 0
532 -51 -475 -357 -236 -116 -557 0
57 -538 -475 -357 -236 -116 -557 0
538 -57 -475 -357 -236 -116 -557 0
63 -544 -475 -357 -236 -116 -557 0
544 -63 -475 -357 -236 -116 -557 0
69 -550 -475 -357 -236 -116 -557 0
550 -69 -475 -357 -236 -116 -557 0
75 -556 -475 -357 -236 -116 -557 0
556 -75 -475 -357 -236 -116 -557 0
144 -507 -476 -357 -236 -116 -557 0
507 -144 -476 -357 -236 -116 -557 0
149 -512 -476 -357 -236 -116 -557 0
512 -149 -476 -357 -236 -116 -557 0
154 -517 -476 -357 -236 -116 -557 0
517 -154 -476 -357 -236 -116 -557 0
159 -522 -476 -357 -236 -116 -557 0
522 -159 -476 -357 -236 -116 -557 0
164 -527 -476 -357 -236 -116 -557 0
527 -164 -476 -357 -236 -116 -557 0
169 -532 -476 -357 -236 -116 -557 0
532 -169 -476 -357 -236 -116 -557 0
175 -538 -476 -357 -236 -116 -557 0
538 -175 -476 -357 -236 -116 -557 0
181 -544 -476 -357 -236 -116 -557 0
544 -181 -476 -357 -236 -116 -557 0
187 -550 -476 -357 -236 -116 -557 0
550 -187 -476 -357 -236 -116 -557 0
193 -556 -476 -357 -236 -116 -557 0
556 -193 -476 -357 -236 -116 -557 0
264 -507 -477 -357 -236 -116 -557 0
507 -264 -477 -357 -236 -116 -557 0
269 -512 -477 -357 -236 -116 -557 0
512 -269 -477 -357 -236 -116 -557 0
274 -517 -477 -357 -236 -116 -557 0
517 -274 -477 -357 -236 -116 -557 0
279 -522 -477 -357 -236 -116 -557 0
522 -279 -477 -357 -236 -116 -557 0
284 -527 -477 -357 -236 -116 -557 0
527 -284 -477 -357 -236 -116 -557 0
289 -532 -477 -357 -236 -116 -557 0
532 -289 -477 -357 -236 -116 -557 0
295 -538 -477 -357 -236 -116 -557 0
538 -295 -477 -357 -236 -116 -557 0
301 -544 -477 -357 -236 -116 -557 0
544 -301 -477 -357 -236 -116 -557 0
307 -550 -477 -357 -236 -116 -557 0
550 -307 -477 -357 -236 -116 -557 0
313 -556 -477 -357 -236 -116 -557 0
556 -313 -477 -357 -236 -116 -557 0
385 -507 -478 -357 -236 -116 -557 0
507 -385 -478 -357 -236 -116 -557 0
390 -512 -478 -357 -236 -116 -557 0
512 -390 -478 -357 -236 -116 -557 0
395 -517 -478 -357 -236 -116 -557 0
517 -395 -478 -357 -236 -116 -557 0
400 -522 -478 -357 -236 -116 -557 0
522 -400 -478 -357 -236 -116 -557 0
405 -527 -478 -357 -236 -116 -557 0
527 -405 -478 -357 -236 -116 -557 0
410 -532 -478 -357 -236 -116 -557 0
532 -410 -478 -357 -236 -116 -557 0
416 -538 -478 -357 -236 -116 -557 0
538 -416 -478 -357 -236 -116 -557 0
422 -544 -478 -357 -236 -116 -557 0
544 -422 -478 -357 -236 -116 -557 0
428 -550 -478 -357 -236 -116 -557 0
550 -428 -478 -357 -236 -116 -557 0
434 -556 -478 -357 -236 -116 -557 0
556 -434 -478 -357 -236 -116 -557 0
475 476 477 478 -357 -236 -116 -557 0
557 558 0
26 31 36 41 46 51 57 63 69 75 -558 0
